model_name='GCN_32_3'
gnn='GCN'
neurons='32'
layers='3'
state_dict.keys()=odict_keys(['layers.0.lin.weight', 'layers.1.lin.weight', 'layers.2.lin.weight', 'fc11.weight', 'fc11.bias', 'fc12.weight', 'fc12.bias'])
Set parameter Username
Academic license - for non-commercial use only - expires 2023-06-18
Set parameter TimeLimit to value 100
Set parameter NonConvex to value 2
Warning: constraint name "min constr" has a space
Warning: Q constraint 0 doesn't have a name
Gurobi Optimizer version 9.5.1 build v9.5.1rc2 (linux64)
Thread count: 8 physical cores, 8 logical processors, using up to 8 threads
Optimize a model with 1041 rows, 2109 columns and 3917 nonzeros
Model fingerprint: 0x857becb6
Model has 384 quadratic constraints
Variable types: 993 continuous, 1116 integer (1096 binary)
Coefficient statistics:
  Matrix range     [6e-05, 9e+02]
  QMatrix range    [4e-05, 5e-01]
  QLMatrix range   [1e+00, 1e+00]
  Objective range  [1e+00, 1e+00]
  Bounds range     [2e-01, 9e+02]
  RHS range        [3e-02, 8e+02]
Presolve removed 82 rows and 714 columns
Presolve time: 0.08s
Presolved: 5967 rows, 2595 columns, 53430 nonzeros
Presolved model has 1024 bilinear constraint(s)
Variable types: 2059 continuous, 536 integer (530 binary)

Root relaxation: objective 2.857004e+02, 5498 iterations, 1.00 seconds (1.33 work units)

    Nodes    |    Current Node    |     Objective Bounds      |     Work
 Expl Unexpl |  Obj  Depth IntInf | Incumbent    BestBd   Gap | It/Node Time

     0     0  285.57436    0 1096          -  285.57436      -     -    1s
H    0     0                       1.1937322  285.57436      -     -    1s
H    0     0                       1.8336452  285.57436      -     -    1s
     0     0  278.70864    0 1121    1.83365  278.70864      -     -    3s
     0     0  263.75234    0 1131    1.83365  263.75234      -     -    4s
     0     0  255.35713    0 1207    1.83365  255.35713      -     -    7s
     0     0  213.19328    0 1247    1.83365  213.19328      -     -    8s
     0     0  211.98841    0 1251    1.83365  211.98841      -     -   12s
     0     0  211.05303    0 1251    1.83365  211.05303      -     -   14s
     0     0  201.18362    0 1309    1.83365  201.18362      -     -   18s
     0     0  198.29565    0 1382    1.83365  198.29565      -     -   20s
     0     0  190.95430    0 1397    1.83365  190.95430      -     -   22s
     0     0  185.46957    0 1381    1.83365  185.46957      -     -   24s
     0     0  183.84868    0 1461    1.83365  183.84868  9926%     -   27s
     0     0  183.51392    0 1473    1.83365  183.51392  9908%     -   28s
     0     0  183.01666    0 1460    1.83365  183.01666  9881%     -   30s
     0     0  180.58593    0 1462    1.83365  180.58593  9748%     -   31s
     0     0  178.69316    0 1455    1.83365  178.69316  9645%     -   33s
     0     0  178.59430    0 1459    1.83365  178.59430  9640%     -   33s
     0     0  171.67677    0 1465    1.83365  171.67677  9263%     -   35s
     0     0  171.63838    0 1472    1.83365  171.63838  9261%     -   36s
     0     0  171.58308    0 1467    1.83365  171.58308  9257%     -   37s
     0     0  171.50634    0 1455    1.83365  171.50634  9253%     -   39s
     0     0  171.01093    0 1472    1.83365  171.01093  9226%     -   40s
     0     0  169.42769    0 1476    1.83365  169.42769  9140%     -   41s
     0     0  169.16262    0 1469    1.83365  169.16262  9125%     -   43s
     0     0  168.76870    0 1459    1.83365  168.76870  9104%     -   46s
     0     2  168.76870    0 1459    1.83365  168.76870  9104%     -   49s
     1     4  168.76870    1 1442    1.83365  168.76870  9104%   574   50s
     3     8  168.76870    2 1438    1.83365  168.76870  9104%  2676   55s
    15    24  158.51265    4 1308    1.83365  168.76870  9104%  4185   61s
    60    75  129.00801    8  301    1.83365  168.76870  9104%  2003   65s
   246   270   78.39397   19  283    1.83365  168.76870  9104%   782   70s
   448   474   60.39748   29  264    1.83365  168.76870  9104%   623   75s
   587   605   49.90255   35  262    1.83365  168.76870  9104%   625   80s
   832   821   32.18596   51  191    1.83365  168.76870  9104%   606   86s
   952   910   28.85388   57  183    1.83365  168.76870  9104%   621   90s
  1204  1121   18.05941   75  151    1.83365  168.76870  9104%   613   96s
  1304  1208   15.93419   81  140    1.83365  168.76870  9104%   605  100s

Cutting planes:
  Gomory: 1
  Cover: 26
  Implied bound: 915
  Clique: 49
  MIR: 1034
  StrongCG: 1
  Flow cover: 318
  GUB cover: 4
  Zero half: 10
  RLT: 144
  Relax-and-lift: 64
  BQP: 50

Explored 1361 nodes (875031 simplex iterations) in 100.01 seconds (158.01 work units)
Thread count was 8 (of 8 available processors)

Solution count 2: 1.83365 1.19373 

Time limit reached
Best objective 1.833645244151e+00, best bound 1.687686951590e+02, gap 9103.9993%
